
 102   30
  10   10   10   10   10   10   10   10   10   10   10   10   10   10   10   10   10   10   10   10   10   10   10   10   10   10   10   10   10   10

   0   0   0   0   0   0   0   0   0   0   0   0   0   0   0   0   0   0   0   0   0   0   0   0   0   0   0   0   0   0   0  26 2 3 4 5 6 7 8 9 10 11 12 14 15 16 17 18 19 22 23 24 25 26 27 28 30 34 
   9   0   0   0   0   0   1   0   0   0   0   0   0   0   0   0   0   1   0   0   0   0   0   0   0   1   0   0   0   0   0  11 69 68 61 50 47 43 37 36 31 21 20 
   1   0   0   0   1   0   0   0   0   0   0   0   0   0   0   0   0   8   0   0   0   6   0   2   0   0   0   0   0   0   0  15 100 97 70 68 61 60 57 54 53 50 48 46 35 31 29 
   2   0   0   2   5   0   0   0   0   0   0   0   0   0   1   0   0   4   0   0   6   0   0   0   2   0   0   0   2   0   0  23 101 100 98 77 68 67 66 65 60 59 58 57 55 54 52 50 49 48 45 43 42 40 37 
   7   0   0   6   0   0   0   0   0   0   0   0   0   0   0   0   0   7   0   0   0   0   0   0   0   0   1   0   0   0   1   8 98 95 77 69 68 56 41 13 
   1   0   0   0   0   0   0   0   0   0   0   0   0   0   0   0   0   0   0   0   0   0   0   0   0   0   0   0   0   0   0  23 98 97 96 89 79 77 68 67 66 65 64 61 60 59 58 56 54 53 51 48 47 43 42 
   8   0   0   0   0   0   0   0   1   1   0   0   0   0   0   0   0   0   0   0   0   3   0   0   0   0   0   0   0   0   0  13 100 98 78 77 70 68 61 53 50 45 41 37 29 
   6   0   3   0   0   1   0   0   0   0   0   0   3   0   0   0   0   0   0   0   0   0   0   0   7   0   0   0   0   0   0  11 98 97 77 69 60 59 55 48 42 36 32 
   3   0   5   0   0   0   0   1   0   0   0   0   1   0   0   0   0   0   0   2   0   0   0   5   6   0   0   0   0   0   0  16 94 93 92 70 68 63 59 58 57 54 50 49 46 45 40 38 
   2   0   0   0   7   8   0   0   0   0   0   0   0   0   5   0   0   6   1   0   0   0   0   0   0   7   0   0   0   0   0  17 101 98 96 95 94 81 80 79 69 67 66 56 53 51 47 41 36 
   7   0   0   0   0   7   0   0   4   0   0   2   0   0   0   0   6   0   0   0   0   0   0   7   0   0   0   0   0   0   0  14 98 97 95 94 78 69 68 65 57 53 50 47 37 36 
   1   0   0   0   0   0   0   0   7   0   0   0   0   0   0   1   0   0   0   2   0   0   1   0   0   0   0   0   0   0   0  11 98 87 85 80 65 53 50 47 45 39 36 
   6   0   8   0   0   0   4   0   0   0   0   0   0   0   0   0   0   0   0   0   0   0   4   8   0   0   0   0   0   0   0   9 101 70 67 60 49 48 47 36 33 
   7   0   0   0   0   0   0   0   0   0   0   0   0   0   5   0   0   0   0   0   0   0   0   0   6   0   0   0   0   0   0  21 100 98 97 94 93 92 90 89 84 77 65 61 58 57 56 54 52 51 50 46 45 
   7   1   0   0   8   0   0   0   0   0   1   0   3   0   0   0   0   5  10   0   0   0   0   0   6   0   0   2   0   0   0  17 100 99 98 97 93 91 84 83 80 68 67 60 59 57 55 47 32 
  10   8   0   0   0   0   0   0   0   0   0   0   0   0   0   0   0   5   0   3   0   9   0   0   0   0   0   3   0   0   0  12 99 98 97 68 67 53 52 48 47 45 40 33 
   5   0   6   0   0   0   0   0   0   0   0   0   0   4   0   0   0   0   0   0   0   0   0   0   0   0   0   8   0   0   0   9 100 91 77 70 61 60 50 48 29 
   4   0   0   0   0   0   0   0   0  10   3   0   0   6   8   0   0   0   0   0   0   0   0   0   0   0   0   0   0   0   0  14 101 100 99 98 95 93 90 66 60 58 54 52 41 33 
   2   0   0   0   0   0   0   0   0   0   7   0   0   0   0   4   0   0   0   0   0   0   0   0   0   0   7   0   0   0   0  13 98 95 94 89 81 80 79 69 67 57 51 44 36 
   3   0   0   0   0   0   0   0   0   0   0   0   0   0   0   0   0   0   0   0   0   8   0   0   0   0   0   0   0   1   0  18 101 98 96 93 90 86 77 76 67 66 65 62 60 59 57 51 45 41 
   2   0   0   0   0   0   0   0   0   0   0   0   0   0   0   0   0   0   0   9   2   0   0   0   0   0   0   0   0   0   0  16 100 98 97 96 92 91 79 66 65 64 62 57 56 54 48 42 
   1   0   0   0   0   7   9   0   0   0   0   6   0   0   0   0   0   0   6   0   0   0   0   0   0   0   0   0   0   0   0  14 99 98 94 90 86 69 68 65 58 57 56 52 42 41 
   6   7   0   0   8   0   0   0   0   0   0   0   8   0   6   3   0   0   0   0   0   0   0   0   0   0   0   0   0   0   0  14 101 99 98 97 95 90 89 86 80 62 60 56 53 33 
   1   0   0   0   8   0   0   0   0   0   0   8   0   4   8   0   0   0   3   0   0   0   0   0   2   0   0   0   0   0   0   9 100 80 61 60 55 53 50 43 33 
   1   6   0   0   0   0   0   0   5   8   0  10   0   8   0   0   0   0   0   0   0   0   9   0  10   0   0   0   0   0   0  13 98 94 93 90 80 77 64 62 61 56 52 45 41 
   4   0   0   0   0   0   4   0   0   0   0   5   0   3   0   0   0   5   0   0   0   0   0   3   0   0   0   0   6   0   0  22 101 99 98 97 93 91 90 89 88 87 85 84 82 81 80 68 66 64 62 61 52 47 
   2   0   0   0   0   0   0   0   0   0   0   0   0   0   0   0   0   0   0   5   0   0   0   0   3   0   0   0   0   0   0  19 101 99 98 95 93 91 89 87 86 84 83 82 79 67 65 64 63 50 48 
   2   0   0   0   0   0   0   0   0   6   0   0   0   0   0   0   0   0   0   0   0   0   0   0  10   0   6   0   0   6   0  17 99 96 95 94 93 91 89 84 83 77 66 64 62 59 57 52 47 
   5   0   0   0   9   0   0   0   0   0   0   0   0   4   0   0   2   0   0   0   5   0   0   0   0   0   0   0   0   0   0  12 99 94 90 89 87 85 79 65 58 52 47 42 
   2   0   6   0   0   0   0   0   0   0   6   0   0   0   0   0   0   0   0   0   0   0   0   0   4   0   0   0   0   0   0  21 98 97 95 94 93 91 90 89 88 87 86 84 83 82 81 79 76 73 66 58 52 
   8   0   0   0   0   0   9   7   0   0   7   0   3   0   0   0   0   0   7   5   0   0   0   0   0   0   0   0   0   0   9  14 99 94 93 88 85 77 76 75 66 63 62 59 51 45 
   4   0   0   0   0  10   0   0   0   0   0   0   0   0   0   6   0   0   0   0   0   0   0   0   0   0   0   0   0   0   0  11 90 89 86 82 79 78 66 65 58 56 50 
   2   0   5   3   0   0   0  10   0   6   0   0   0   0   0   0   0   0   0   0   0   0   0   0   0   0   0   0   5   0   0  16 96 94 92 91 88 85 84 83 82 76 75 73 72 65 64 59 
   5   0   0   0   0   4   0   0   0   0   0   0   0   0   0   0   0   0   0   0   0   0   0   0   0   0   0   0   0   0   0  16 99 98 97 96 95 92 89 86 85 84 83 80 75 73 71 58 
   7   0   0   0   0   0   9   0   5   0   7   0   0   0   0   0   0  10   0   0   0   0   0   0   0   4   0   0   0   0   0  14 98 92 89 87 84 83 82 81 76 71 67 63 62 56 
   9   0   0   0   0   0   0   0   0   6   0   0   0   0   0   0   0   0   0   5   0   0   6   0   0   0   0   0   0   0   0  13 100 99 93 92 91 90 86 83 76 73 64 58 52 
   6   0   0   0   0   0   0   0   0   0   0   6   9   0   0   0   0   0   0   0   0   4   0   0   0   0   6   0   0   0   0  15 96 90 89 88 87 86 85 81 80 76 75 74 73 64 63 
   7   0   0   0   6   0   0   0   0   0   0   0   8   0   0   0   0   0   0   0   0   0   0  10   0   0   0   0   0   0   0  11 101 100 98 97 89 83 81 74 72 56 53 
   3   0   0   0   0   0   0   0   0   0   0   0   0   0   0   0   0   0   9   0   0   0   0   4   0   0   0   0   0   7   0  11 97 96 94 89 88 84 82 75 66 62 54 
   7   0   5   8   0   0   8   0   0   0   0   6   0   0   0   0   0   0   0   0   0   0   0   0   0   8   0   0   0   0   0  11 95 91 89 82 81 76 75 73 72 64 62 
   2   0   0   0   0   0   0   0   0   6   0   4   0   0   0   0   0   0   0   9   0   0   7   7   0   0   0   4   0   6   0  12 97 92 91 89 87 84 83 82 75 73 72 71 
   5   0   0   0   4   0   0   0   0   0   0   0   0   7   0   0   0   0   0   0   8   0   0   0   0   0   0   0   0   0   6  10 95 93 84 83 82 81 75 74 73 63 
   1   0   0   0   0   0   0   0   0   0   0   0   7   0   0   0   7   0   7   0   0   0   0   0   6  10   0   0   0   0   0  10 99 93 90 86 82 76 75 74 73 71 
   2   0   6   0   0   0   0   0   0   0   0   8   0   0   0   0   5   0   0   7   0   6   0   0   0   0   0   0   0   6   0   9 93 87 85 84 82 76 75 74 73 
   4   0   0   7   6   0   0   0   0   0   0   0   0   0   0   0   0   0   0   4   0   0   0   0   0   0   0   0   0   0   0   7 95 82 81 79 73 72 71 
   8   7   8   0   0   0   0   0   0   4   0   0   0   0   0   0   0   0   0   0   0   6   0   0   2   0   7   0   0   0   4   6 91 86 83 75 72 62 
   3   0   0   0   0   5   0   0   0   0   0   0   0   0   0   0   0   8   0   0   0   0   0   0   0   0   0   8   0   0   0   6 92 86 76 74 73 72 
   4   0   4   6   0   0   0   0   0   0   0   0   0   0   0   0   0   3   0   0   0   4   0   0   8   0   0   0   0   0   7   6 94 90 81 80 76 72 
   3   0   6   0   0   0   0   0   0   0   0   0   0   6   0   0  10   0   9   0   7   0   0   0   0   0   0   0   0   0   6   6 97 90 89 81 78 76 
   6   0   0   0   0   0   0   0   8   0   0   0   0   7   0   0   0   0   0   0   0   0   0   0   0   0   0   0   0   0  10   5 96 88 75 73 62 
   4   0  10   0   0   0   0   0   0   0   0   0   0   0   0   8   0   0   0   0   0   0   0   0   0   0   0   8   0   0   4   5 91 83 78 74 71 
   7   0   6   5   0   0   0   0   0   0   0   0   0   7   5   8   0   0   6   0   0   0   0   0   0   0   0   0   0   0   0   4 75 74 71 63 
   9   0   0   0   0   7   0   0   0   0   0   0   0   0   0   0   0  10   0   0   0   0   0   0   0   0   0   0   0   3   0   4 84 75 73 71 
   7   0   0   0   0   0   0   0   0   9   0   0   0   0   0   0   0   0   0   0   0   0   0   0   0   0   0  10   0   4   0   4 86 74 73 72 
   2   0   0   0   0   0   0   0   0   0   0   0   0   0   0   0   0   0   5   0   0   0   6   0   0   0   0   0   0   0  10   4 92 90 81 71 
   9   0   0   0   0   0   0   0   0   0   0   0   0   0   0   5   0   0   0   6   0   0   5   0   0   0   0   2   0   0   0   3 88 85 73 
   7   0   0   0   0   0   0   0   0   0   0   0   0   0   0   0   9   8   0  10   0   0   0   0   6   0   0   0   0   6   0   3 87 85 82 
   3   0   0   0   0   0   0   0   0   0   0   0   0   0   0   0   0   0   0   0   0   0   0   8   0   0   0   9   0   7   6   2 72 62 
   5   0   0   0   0   0   0   3   0   0   0   0   0   4   0   0   0   0   0   0   0   0   0   0   0   0   0   4   0   0   0   2 87 81 
   5   0   0   0   0   0   0   0   0   0   9   0   0  10   0   0   0   0   0   0   0   6   0   0   0   0   0   0   0   0   0   2 72 71 
   6   0   0   0   0   0   0   0   0   0   0   0   0   0   0   0   0   0   0   0   0  10   0   0   0   0   0   0   0   9   3   2 83 76 
   4   7   0   0   0   0   0   0   4   0   0   0   0   0   0   0   0   0   0   0   0   0   0   5   0   0   9   0   0   0   5   1 74 
   5   4   0   0   0   0   0   0   0   9   0   0   5   0   0   0   0   0   0   0   0   4   0   4   0   0   0   0   0   0   0   1 72 
   2   0   0   0   0   0   0   0   0   0   0   0  10   0   0   0   0   0   0   0   0   0   6   0   0   0   0   0   0   0   0   1 71 
   8   0   3   0   0   5   0   0   0   6   0   0   0   0   0   0   0   0   0   0   0   0   0   0   0   0   0   7   0   0   0   1 71 
   5   0   0   0   0   0   0   0   0   0   0   0   0   0   0   0   0   0   0   0   0   0   0   0   0   0   0   0   0   0   0   1 71 
   8   0   0   0   0   0   0   8   0   0   0   4   0   4   0   0   3   0   0   0   0   0   0   0   0   0   0   0   0   0   0   1 88 
   4   0   0   0   0   0   0   0   0   0   0   0   8   0   0   6   7   0   0   0   0   0   0   0   0   0   0   0   0   0   0   1 76 
  10   0   0   0   0   0   6   0   0   0   0   0   0   0   0   0   0   0   0   0   0   0   0   0   0   0   0   0   0   0   0   1 85 
   9   0   0  10   0   0   8   0   8   0   0   0   0   0   0   0   0   0   0   5   0   0   9   0   0   0   0   0   0   0   0   1 80 
   4   0   0   0   0   0   0   0   0   0   0   0   0   8   0   0   0   0   0   0   0   7   6   0   0   0   4   0   0   0   0   1 102
   7   0   0   7   0   0   0   0   0   0   0   0   0   0   0   0   0   0   0   0   0   0   0   0   0   0   0   0   0   0   0   1 102
   1   0   0   0   0   0   8   9   0   0   0   0   0   0   9   0   0   0   0   0  10   0   0   0   7   0   7   0   0   0   8   1 102
   1   0   0   0   0   0   0   0   0   0   0   0   0   0   0   0   0   0   0   0   0   0   5   5   0   0   0   0   0   0   0   1 102
   1   0   0   0   0   3   0   0   0   0   0   0   0   0   0   7   0   0   0   0   0   0   0   0   0   0   0   0   0   0   0   1 102
   1   0   0   0   0   0   0   0   0   0   7   0   0   0   0   0   6   0   0   0   0   0   0   0   0   0   5   8   0   0   0   1 102
   9   0   0   0   0   0   0   0   0   0   0   4   0   0   0  10   0   0   0   0   0   0   0   0   0   0   9   0   0   0   0   1 102
   3   0   0   0   0   0   0   0   0   0   0   0   0   0   0   0   0   0   0   0   0   4   0  10   9   0   0   0   5   0  10   1 102
   2   0   0   0   0   0   0   0   0   0   0   0   0   0   0   0   6   6   0   0   0   0   0   0   0   0   0   0   7   0   0   1 102
   2   0   0   0   5   0   0   0   0   0   0   0   0   0   0   0   0   0   0   0   0   0   0   0   0   0   0   0   0   0   0   1 102
   5   0   0   0   0   0   0   0   0   0   0   9   0   0   0   0   0   0   0   8   0   0   0   0   0   0   0   0   0  10   4   1 102
   7   0   6  10   5  10   0   0   0   0   0   0   6   0   0   0   0   0   0   0   0   0   0   0   0   0   0   2   0   0   0   1 102
   3   0   0   0   0   0   0   0   0   3   0   0   0   9   0   0   0   0   0   0   0   0   0   0   0   6   0   0   7   0   0   1 102
   7   4   0   0   0   6   0   0   0   0   0   0   0   0   0   0   0   0   0   0   0   0   0   0   0   0   0   0   0   0   0   1 102
   5   0   0   0   0   5   0   0   0   0   0   0   0   0   0   0   0   0   0   0   0   0   9   0   0   0   8   0   0   0   0   1 102
   5   0   0   0   0   0   0   0   0   0   0   0   0   0   7   0   0   0   0   0   0   0   0   0   0   0   0   0   0   6   0   1 102
   1   0   0   3   0   0   3   0   0   0   6   0   3   0   0   0   0   0   0   0   0   4   0   0   0   0   0   0   0   0   0   1 102
   9  10   0   0   0   0   0   0  10   0   0   0  10   0   0   0   0   0   0   0   0   0   0   0   0   0   0   0   0   0   3   1 102
   3   0   8   0   0   0   0   0   0   0   0   0   0   0   0   0   0   0   0   0   0   0   0   0   0   0   3   0   0   0   0   1 102
   2   0   0   0   7   0   0   0   0   5   0   0   0   0   0   6   6   0   0   7   0   0   0   0   0   0   0   0   0   0   0   1 102
   1   0   7   0   0   0   5   4   5   9   0   0   0   0   0   0   0   0   0   5   4   0   0   0   0   0   0   0   0   0   0   1 102
   9   0   0   0   0   0   6   0   0   6   0   0   0   0   0   0   5   0   0   0   0   0   0   0   0   0   0   0   0   0   0   1 102
   8   0   0   0   0   0   4   0   0   0   0   0   0   0   0   0   0   0   0   0   0   0   0   0   0   0   3   0   0   0   0   1 102
   8   0   0   0   5   0   0   0   9   0   0   0   0   0   0   0   0   0   3  10   0   0   0   0   0   0   0   0   0   0   0   1 102
   5   0   0   0   0   0   0   0   0   0   7   0   0   0   0   0   0   0   0   0   0   0   0   0   8   0   9   0   0   0   0   1 102
   7   0   0   0   0   0   0   0   0   7   0   8   0   0   0   0   0   4   0   0   0   0   0   0   0   0   0   7   0   0   0   1 102
   6   6   0   0   0   0   0   0   6   0   0   7   0   0   0   0   0   0   0   0   0   0   0   0   0   0   0   6   6   7   6   1 102
   3   0   0   0   0   0   0   0   0   3   0   0   0   0   0   8   0   0   0   0   0   5   0   0   0   0   0   0   0   0   0   1 102
   8   0   0   0   0   0   0   0   0   4   0   5   0   0   0   0   0   0   0   0   0   0   0   0   0   0   0   8   0   0   0   1 102
   4   0   0   5   0   0   6   0   0   0   0   4   0   0   0   0   0   0   0   0   0  10   5   0   0   0   0   0  10   0   0   1 102
   9   0   0   0   0   0   0   0   0   0   0   0   0   5   0   0   0   0   0   0   0   0   0   0   0   0   0   0   0   0   0   1 102
   0   0   0   0   0   0   0   0   0   0   0   0   0   0   0   0   0   0   0   0   0   0   0   0   0   0   0   0   0   0   0   0 
